width = 5;
height = 5;

grid = 
[| true,true,true,false,false
| true,true,true,true,false
| true,true,true,true,true
| false,true,true,true,true
| false,false,true,true,true
|];
number_of_clues = 10;
start_rows = [1,2,3,4,5,1,1,1,2,3];
start_cols = [1,1,1,2,3,1,2,3,4,5];
is_vertical = [false,false,false,false,false,true,true,true,true,true];
lens = [3,4,4,3,2,3,4,4,3,2];
